NAME : gr120
TYPE : OP
DIMENSION : 120
COST_LIMIT : 3471
ROUTE_NODES : 68
ROUTE_SCORE : 3748
ROUTE_COST : 3468
NODE_SEQUENCE_SECTION
1
76
30
32
92
78
94
86
22
85
19
25
108
52
33
100
58
79
68
43
65
69
113
20
46
50
17
98
42
41
56
7
38
103
9
11
115
2
21
109
93
64
77
63
5
27
80
114
73
57
83
67
37
62
99
104
112
110
101
102
48
47
71
26
34
70
116
61
-1
DEPOT_SECTION
1
-1
EOF
